
Gurobi 10.0.3 (linux64, gurobi_cl) logging started Thu Nov  2 11:33:56 2023

Set parameter Username
Set parameter TimeLimit to value 3600
Set parameter LogFile to value "RCPSP_127.log"
Set parameter Threads to value 32
Academic license - for non-commercial use only - expires 2024-10-30
Using license file /home/jrivera6/gurobi-licenses/v1003/compute-0-38/gurobi.lic

Gurobi Optimizer version 10.0.3 build v10.0.3rc0 (linux64)
Copyright (c) 2023, Gurobi Optimization, LLC

Read MPS format model from file RCPSP_127.mps
Reading time = 0.01 seconds
RCPSP_127: 5329 rows, 2080 columns, 18873 nonzeros

CPU model: Intel(R) Xeon(R) Gold 6242 CPU @ 2.80GHz, instruction set [SSE2|AVX|AVX2|AVX512]
Thread count: 32 physical cores, 32 logical processors, using up to 32 threads

Optimize a model with 5329 rows, 2080 columns and 18873 nonzeros
Model fingerprint: 0xa5f4a7b9
Variable types: 32 continuous, 2048 integer (2048 binary)
Coefficient statistics:
  Matrix range     [1e+00, 2e+02]
  Objective range  [1e+00, 1e+00]
  Bounds range     [1e+00, 1e+00]
  RHS range        [1e+00, 2e+02]
Presolve removed 3308 rows and 1258 columns
Presolve time: 0.11s
Presolved: 2021 rows, 822 columns, 6866 nonzeros
Variable types: 31 continuous, 791 integer (791 binary)

Root relaxation: objective 5.000000e+01, 325 iterations, 0.00 seconds (0.00 work units)

    Nodes    |    Current Node    |     Objective Bounds      |     Work
 Expl Unexpl |  Obj  Depth IntInf | Incumbent    BestBd   Gap | It/Node Time

     0     0   50.00000    0   38          -   50.00000      -     -    0s
     0     0   50.00000    0  100          -   50.00000      -     -    0s
     0     0   50.00000    0   90          -   50.00000      -     -    0s
H    0     0                     109.0000000   50.94286  53.3%     -    0s
     0     0   50.94286    0   54  109.00000   50.94286  53.3%     -    0s
H    0     0                     108.0000000   50.94286  52.8%     -    0s
H    0     0                     106.0000000   50.94286  51.9%     -    0s
     0     0   52.00000    0   51  106.00000   52.00000  50.9%     -    0s
H    0     0                      94.0000000   52.00000  44.7%     -    1s
     0     0   52.00000    0   86   94.00000   52.00000  44.7%     -    1s
H    0     0                      87.0000000   52.00000  40.2%     -    1s
     0     0   53.00000    0   93   87.00000   53.00000  39.1%     -    1s
     0     0   53.00000    0  108   87.00000   53.00000  39.1%     -    1s
     0     0   53.00000    0   96   87.00000   53.00000  39.1%     -    1s
     0     0   53.00000    0   97   87.00000   53.00000  39.1%     -    1s
     0     0   53.00000    0  110   87.00000   53.00000  39.1%     -    1s
     0     0   53.00000    0  113   87.00000   53.00000  39.1%     -    1s
     0     0   53.00000    0  106   87.00000   53.00000  39.1%     -    1s
     0     0   53.22766    0  114   87.00000   53.22766  38.8%     -    1s
     0     0   53.22839    0  126   87.00000   53.22839  38.8%     -    1s
     0     0   53.22839    0  131   87.00000   53.22839  38.8%     -    1s
     0     0   53.33333    0  134   87.00000   53.33333  38.7%     -    1s
     0     0   53.33333    0  112   87.00000   53.33333  38.7%     -    1s
     0     0   53.33333    0  110   87.00000   53.33333  38.7%     -    1s
     0     0   53.33333    0  119   87.00000   53.33333  38.7%     -    1s
     0     0   53.33333    0   64   87.00000   53.33333  38.7%     -    2s
H    0     0                      86.0000000   53.33333  38.0%     -    2s
     0     0   53.33333    0   78   86.00000   53.33333  38.0%     -    2s
     0     0   53.70410    0   82   86.00000   53.70410  37.6%     -    2s
     0     0   54.04178    0  110   86.00000   54.04178  37.2%     -    2s
     0     0   54.06004    0  108   86.00000   54.06004  37.1%     -    2s
     0     0   54.06004    0   97   86.00000   54.06004  37.1%     -    2s
     0     0   54.48980    0   98   86.00000   54.48980  36.6%     -    2s
     0     0   54.48980    0  104   86.00000   54.48980  36.6%     -    2s
     0     0   54.48980    0   99   86.00000   54.48980  36.6%     -    2s
     0     0   54.48980    0  103   86.00000   54.48980  36.6%     -    2s
     0     0   54.48980    0   79   86.00000   54.48980  36.6%     -    2s
     0     0   54.48980    0   84   86.00000   54.48980  36.6%     -    3s
     0     0   54.48980    0   49   86.00000   54.48980  36.6%     -    3s
     0     0   54.48980    0   73   86.00000   54.48980  36.6%     -    3s
     0     0   54.48980    0   60   86.00000   54.48980  36.6%     -    3s
     0     0   54.48980    0   89   86.00000   54.48980  36.6%     -    3s
     0     0   54.48980    0   71   86.00000   54.48980  36.6%     -    3s
     0     0   54.48980    0   67   86.00000   54.48980  36.6%     -    3s
H    0     0                      85.0000000   54.48980  35.9%     -    3s
     0     0   54.48980    0   67   85.00000   54.48980  35.9%     -    3s
H    0     0                      83.0000000   54.48980  34.3%     -    4s
     0     2   54.48980    0   62   83.00000   54.48980  34.3%     -    4s
     1     3   55.05133    1   55   83.00000   55.05133  33.7%   422    5s
*  897   836              29      82.0000000   60.34711  26.4%  15.4    8s
H 2216  1653                      79.0000000   60.34711  23.6%  11.8   11s
H 2216  1653                      78.0000000   60.34711  22.6%  11.8   11s
H 2217  1653                      76.0000000   60.34711  20.6%  11.8   11s
H 2244  1653                      75.0000000   60.34711  19.5%  11.9   11s
  3268  1583   66.00000   16   67   75.00000   61.00000  18.7%  11.8   18s
  3270  1584   65.00000   18   39   75.00000   61.00000  18.7%  11.8   22s
  3273  1586   63.00000   14   53   75.00000   61.00000  18.7%  11.8   25s
H 3275  1508                      75.0000000   61.00000  18.7%  11.8   25s
  3290  1523   61.25000   12  103   75.00000   61.00000  18.7%  15.7   30s
H 3382  1528                      74.0000000   61.00000  17.6%  17.2   41s
H 3383  1456                      72.0000000   61.00000  15.3%  17.2   41s
  3414  1447   65.00000   17   73   72.00000   61.00000  15.3%  17.4   56s
H 3445  1368                      72.0000000   61.00000  15.3%  17.5   56s
  3731  1431   65.00000   21   70   72.00000   61.00000  15.3%  20.0   60s
* 4058  1304              31      71.0000000   61.00000  14.1%  21.8   63s
  4096  1281   70.00000   27   57   71.00000   61.00000  14.1%  22.1   65s
  4565  1296   64.00000   22   70   71.00000   63.00000  11.3%  25.3   70s
  5083  1231 infeasible   36        71.00000   63.00000  11.3%  24.5   75s
  6384  1063 infeasible   59        71.00000   63.00000  11.3%  23.5   80s
  7930  1183 infeasible   34        71.00000   63.00000  11.3%  24.8   85s
  8612  1237 infeasible   29        71.00000   63.00000  11.3%  27.1   90s
  9578  1256 infeasible   28        71.00000   64.00000  9.86%  30.1   96s
 11036  1455 infeasible   24        71.00000   64.00000  9.86%  30.3  100s
 11659  1751   68.00000   28   51   71.00000   64.00000  9.86%  31.6  105s
 13309  1601 infeasible   30        71.00000   64.00000  9.86%  31.3  110s
 15580  1746 infeasible   24        71.00000   65.00000  8.45%  30.9  116s
 17278  2014 infeasible   24        71.00000   65.00000  8.45%  30.1  121s
 17473  1976 infeasible   25        71.00000   65.00000  8.45%  30.7  153s
H17484  1976                      71.0000000   65.00000  8.45%  30.8  153s
 17569  1932   70.00000   27   18   71.00000   65.00000  8.45%  31.1  155s
 18264  1840   67.00000   24   60   71.00000   65.03220  8.41%  32.2  161s
 18527  1816   67.00000   26   53   71.00000   65.03220  8.41%  32.6  169s
 18621  1726 infeasible   28        71.00000   65.03220  8.41%  32.7  171s
 19229  1609 infeasible   24        71.00000   66.00000  7.04%  33.4  175s
 20049  1439   66.00000   32   47   71.00000   66.00000  7.04%  33.8  180s
 20912  1330   68.00000   27   65   71.00000   66.00000  7.04%  34.3  185s
 21772  1159     cutoff   26        71.00000   66.00000  7.04%  34.8  190s
 22883   815 infeasible   37        71.00000   66.00000  7.04%  35.2  196s
 24372   298 infeasible   28        71.00000   67.00000  5.63%  35.2  203s
 25689    96   70.00000   27   23   71.00000   68.00000  4.23%  34.5  207s
 27088     0 infeasible   29        71.00000   70.00000  1.41%  33.5  210s

Cutting planes:
  Learned: 7
  Gomory: 67
  Cover: 46
  Implied bound: 19
  Projected implied bound: 7
  Clique: 1
  MIR: 78
  Flow cover: 227
  Inf proof: 24
  RLT: 15
  Relax-and-lift: 21

Explored 27493 nodes (928015 simplex iterations) in 210.44 seconds (10.16 work units)
Thread count was 32 (of 32 available processors)

Solution count 10: 71 71 72 ... 79

Optimal solution found (tolerance 1.00e-04)
Best objective 7.099999999280e+01, best bound 7.099999999280e+01, gap 0.0000%

Wrote result file 'RCPSP_127.sol'

